1216851
9,77,66,37,26,57,75,86,27,69,70,14,39,31,72,38,41,49,11,91,89,97,47,71,99,105,87,62,19,73,76,50,18,7,88,65,12,36,28,8,40,68,55,33,78,108,106,60,42,96,93,13,21,48,74,92,56,103,4,67,79,23,15,80,17,53,100,102,54,58,104,22,64,10,109,24,90,45,82,1,5,35,98,101,34,52,83,3,63,20,44,43,85,61,30,6,95,32,25,29,16,107,94,46,81,2,59,84,51